(set-info :Origin "This instance was generated by: BanditFuzz-- an RL fuzzer for SMT solvers" )
(set-info :Author "Joe Scott, Fed Mora, Vijay Ganesh" )
(set-info :Contact "Joe Scott, joseph.scott@uwaterloo.ca")
(set-logic QF_BV)
(declare-const bool_0 Bool)
(declare-const bool_1 Bool)
(declare-const bool_2 Bool)
(declare-const bool_3 Bool)
(declare-const bool_4 Bool)
(declare-const bv_0 (_ BitVec 32))
(declare-const bv_1 (_ BitVec 32))
(declare-const bv_2 (_ BitVec 32))
(declare-const bv_3 (_ BitVec 32))
(declare-const bv_4 (_ BitVec 32))
(assert (bvule (bvlshr (bvnor #x9b0d680e  bv_3) (bvsdiv #x7bd716bc  bv_4)) (bvshl (bvudiv bv_4 #x868ca38e ) (bvashr #x08fcc506  #x99159adf ))))
(assert (or (or (or true true) (bvugt bv_3 bv_1)) (bvule (bvashr #xf1abe01c  bv_4) (bvsub #xd1388c23  bv_4))))
(assert (and (not (not false)) (bvsgt (bvsdiv #x61cede0a  bv_3) (bvxnor bv_2 bv_0))))
(assert (=> (bvsgt (bvsrem #x11e4fcd2  #x25a85f27 ) (bvadd #x97654905  bv_3)) (bvuge (bvor #x91572e3b  #x56fdbff2 ) (bvsdiv bv_4 bv_4))))
(assert (bvsle (bvurem (bvsdiv bv_3 #xea3386a1 ) (bvnor #xe78c4549  bv_3)) (bvshl (bvsmod #xdc8ec717  bv_3) (bvand bv_0 #x1f6e4229 ))))
(check-sat)
(exit)
